25367
32,135,163,166,183,195,258,269,400,426,463,473,508,537,599,603,830,928,1021,1143,1332,1353,1426,1457,1653,1719,1793,1801,1889,2050,2079,2094,2105,2253,2280,2313,2434,2680,2720,2744,2886,2892,2896,2965,2966,3032,3212,3215,3216,3373,3398,3599,3604,3624,3759,3802,3810,3841,3961,3979,4033,4085,4100,4158,4226,4350,4416,4487,4512,4544,4546,4648,4739,4761,4818,4941
